Name:		mgval_0.45_4C
Optimal value:	-1
#Vehicles:	5
Capacity:	130
Depot Node:	1
#Nodes:		41
#Edges:		21
#Arcs:		82
#Required N:	29
#Required E:	11
#Required A:	45

ReN.	DEMAND	S. COST
N2	23	23
N4	8	8
N7	11	11
N9	10	10
N10	4	4
N12	4	4
N13	7	7
N14	13	13
N15	4	4
N16	7	7
N17	4	4
N19	12	12
N20	10	10
N21	12	12
N22	12	12
N23	8	8
N24	7	7
N25	4	4
N26	11	11
N27	4	4
N29	15	15
N30	12	12
N31	7	7
N35	18	18
N36	4	4
N37	2	2
N38	16	16
N39	8	8
N40	4	4

ReE.	FROM N.	TO N.	T. COST	DEMAND	S. COST
E11	16	17	9	15	15
E12	26	27	7	11	11
E13	17	18	4	7	7
E14	37	41	5	9	9
E15	18	22	6	14	14
E16	4	5	1	2	2
E17	5	11	4	8	8
E18	25	31	7	11	11
E19	27	32	3	8	8
E20	30	31	12	19	19
E21	27	28	7	13	13

EDGE	FROM N.	TO N.	T. COST
NrE1	22	28	5
NrE2	40	41	4
NrE3	2	8	10
NrE4	23	24	3
NrE5	21	27	1
NrE6	20	27	5
NrE7	35	39	10
NrE8	2	3	1
NrE9	21	22	4
NrE10	38	39	9

ReA.	FROM N.	TO N.	T. COST	DEMAND	S. COST
A38	36	32	10	7	7
A39	20	19	3	2	2
A40	8	9	2	3	3
A41	37	36	8	12	12
A42	20	21	5	5	5
A43	23	13	7	7	7
A44	19	16	1	1	1
A45	10	9	3	3	3
A46	34	29	14	9	9
A47	25	15	9	19	19
A48	13	14	8	8	8
A49	7	13	7	7	7
A50	33	37	2	2	2
A51	14	13	8	8	8
A52	25	24	4	4	4
A53	11	16	6	6	6
A54	11	10	4	4	4
A55	11	12	5	4	4
A56	15	10	1	2	2
A57	21	20	5	5	5
A58	13	7	7	7	7
A59	4	10	3	3	3
A60	24	30	8	6	6
A61	34	38	7	6	6
A62	36	35	8	6	6
A63	9	10	3	3	3
A64	17	20	2	2	2
A65	23	29	5	7	7
A66	34	35	2	4	4
A67	36	40	4	7	7
A68	2	1	1	1	1
A69	32	36	10	6	6
A70	35	36	8	6	6
A71	12	11	5	5	5
A72	3	4	7	7	7
A73	10	4	3	4	4
A74	6	5	6	13	13
A75	24	25	4	3	3
A76	9	3	1	1	1
A77	32	31	5	5	5
A78	6	12	3	4	4
A79	32	26	7	7	7
A80	33	27	5	5	5
A81	1	7	5	7	7
A82	16	15	3	6	6

ARC	FROM N.	TO N.	T. COST
NrA1	12	6	3
NrA2	14	15	3
NrA3	31	32	5
NrA4	29	34	14
NrA5	14	24	4
NrA6	26	25	6
NrA7	25	26	6
NrA8	13	23	7
NrA9	27	33	5
NrA10	9	14	5
NrA11	39	40	2
NrA12	10	11	4
NrA13	16	11	6
NrA14	30	24	8
NrA15	35	31	4
NrA16	39	36	3
NrA17	19	26	8
NrA18	4	3	7
NrA19	38	34	7
NrA20	36	39	3
NrA21	31	35	4
NrA22	37	33	2
NrA23	1	2	1
NrA24	24	14	4
NrA25	26	32	7
NrA26	20	17	2
NrA27	30	29	3
NrA28	19	20	3
NrA29	23	14	3
NrA30	29	23	5
NrA31	15	14	3
NrA32	7	8	2
NrA33	17	11	2
NrA34	10	15	1
NrA35	14	23	3
NrA36	16	19	1
NrA37	7	1	5
